(set-logic QF_S)
(declare-fun I () String)
(declare-fun G () String)
(declare-fun L () String)
(declare-fun J () String)
(assert (= (str.++  "a" J "aaaa" L "acbbbabb" J "cc" G J "a" J "aa" L "aaa" J L "ba" L "cabaa" L "ab" L "a")  (str.++  "a" J "aaaa" G "a" G "b" J J "a" J "bb" L L G I "ab" G J "a" G L "a" J "aa" G "a" J L "a") ))
(check-sat)
(get-model)
